c --- [ banner ] -------------------------------------------------------------
c 
c CaDiCaL Radically Simplified CDCL SAT Solver
c Copyright (c) 2016-2021 A. Biere, M. Fleury, N. Froleyks
c 
c Version 1.5.2 9c38a080b32c28d805e8e6ca21849856b0cda605
c g++ (Ubuntu 7.5.0-3ubuntu1~18.04) 7.5.0 -Wall -Wextra -O3 -DNDEBUG
c Wed Feb 16 23:15:36 EST 2022 Linux fac-vanhoeve01 5.4.0-99-generic x86_64
c 
c --- [ parsing input ] ------------------------------------------------------
c 
c reading DIMACS file from '<stdin>' (use '-h' for a list of common options)
c found 'p cnf 2692 7976' header
c parsed 7976 clauses in 0.00 seconds process time
c disconnecting from '<stdin>'
c after reading 106558 bytes 0.1 MB
c 
c --- [ options ] ------------------------------------------------------------
c 
c all options are set to their default value
c 
c --- [ solving ] ------------------------------------------------------------
c 
c time measured in process time since initialization
c 
c  seconds  reductions  redundant irredundant
c         MB    restarts       trail    variables
c          level   conflicts       glue      remaining
c 
c *  0.00  4  0 0   0    0    0  0% 0 7974 2618 97%
c {  0.01  4  0 0   0    0    0  0% 0 7974 2618 97%
c -  0.02  5 55 1  23  302  287 77% 8 7902 2618 97%
c -  0.06  5 33 2  62  903  704 85% 8 7902 2618 97%
c }  0.06  5 33 2  68 1004  802 86% 8 7902 2618 97%
c [  0.06  5  0 2  68 1004  802  0% 0 7902 2618 97%
c O  0.06  5 15 2  68 1005  803 97% 13 7902 2618 97%
c -  0.11  6 16 3  68 1803  992 93% 13 7902 2618 97%
c ]  0.18  6 17 3  69 3004 1728 92% 13 7902 2618 97%
c {  0.18  6 33 3  69 3004 1728 86% 8 7902 2618 97%
c -  0.18  6 33 4  69 3004 1205 86% 8 7902 2618 97%
c F  0.18  6 33 4  69 3009 1209 86% 8 7902 2618 97%
c s  0.20  6 32 4 102 3214 1405 86% 8 7902 2618 97%
c e  0.22  6 32 4 102 3214   91 86% 8 5683 885 33%
c s  0.22  6 32 4 102 3214   84 86% 8 5683 885 33%
c -  0.29  6 24 5 214 4505 1194 78% 9 5683 885 33%
c p  0.31  6 24 5 295 5001 1657 81% 9 5683 885 33%
c #  0.36  6 23 5 397 6011 2602 82% 9 5683 885 33%
c -  0.37  6 23 6 450 6306 2281 82% 9 5683 885 33%
c }  0.40  6 23 6 497 7004 2878 82% 9 5683 885 33%
c 
c  seconds  reductions  redundant   irredundant
c         MB    restarts       trail      variables
c          level   conflicts        glue      remaining
c 
c [  0.40  6 17 6 497 7004 2878 281% 13 5683 885 33%
c -  0.47  6 20 7 498 8406 2709 202% 15 5683 885 33%
c I  0.55  6 21 7 499 10013 3921 165% 16 5683 885 33%
c -  0.60  6 22 8 500 10806 3014 155% 16 5683 885 33%
c -  0.75  7 24 9 502 13506 3222 134% 18 5683 885 33%
c s  0.78  7 24 9 502 13947 3582 132% 18 5683 885 33%
c w  0.78  7 24 9 502 13947 3580 132% 18 5683 885 33%
c s  0.79  7 24 9 502 13947 3579 132% 18 5683 885 33%
c ^  0.79  7 24 9 502 13947 3579 132% 18 5683 885 33%
c 2  0.86  7 25 9 502 15001 4458 127% 18 5683 885 33%
c p  0.86  7 25 9 502 15001 4462 127% 18 5683 885 33%
c ]  0.86  7 25 9 502 15005 4465 127% 18 5683 885 33%
c {  0.86  7 23 9 502 15005 4465 82% 9 5683 885 33%
c B  0.86  7 23 9 505 15014 4474 82% 9 5683 885 33%
c -  0.94  7 22 10 670 16506 3992 83% 10 5683 885 33%
c -  1.10  6 21 11 925 19806 4512 83% 10 5683 885 33%
c W  1.17  6 21 11 1053 21016 5631 83% 10 5683 885 33%
c -  1.29  7 21 12 1277 23406 5180 83% 10 5683 885 33%
c -  1.47  7 21 13 1586 27307 5858 83% 10 5683 885 33%
c F  1.51  7 21 13 1651 28017 6518 83% 10 5683 885 33%
c 
c  seconds  reductions     redundant  irredundant
c         MB     restarts         trail     variables
c          level      conflicts       glue      remaining
c 
c p  1.60  7 21 13 1784 30001 8364 83% 10 5683 885 33%
c s  1.61  7 21 13 1785 30045 8398 83% 10 5683 885 33%
c s  1.64  7 21 13 1785 30045 8398 83% 10 5683 885 33%
c ^  1.64  7 21 13 1785 30045 8398 83% 10 5683 885 33%
c }  1.70  7 21 13 1878 31005 9263 83% 10 5683 885 33%
c [  1.70  7 25 13 1878 31005 9263 127% 18 5683 885 33%
c -  1.73  7 24 14 1878 31508 6411 125% 18 5683 885 33%
c -  1.99  7 22 15 1881 36008 6241 112% 16 5683 885 33%
c B  1.99  7 22 15 1881 36019 6250 112% 16 5683 885 33%
c -  2.27  7 24 16 1884 40808 6320 107% 17 5683 885 33%
c W  2.54  7 24 16 1885 45020 9568 103% 17 5683 885 33%
c -  2.61  7 24 17 1885 45909 6459 103% 17 5683 885 33%
c p  2.88  7 24 17 1886 50004 9403 101% 18 5683 885 33%
c -  2.96  7 24 18 1886 51310 6619 100% 18 5683 885 33%
c s  2.97  7 24 18 1886 51510 6760 100% 18 5683 885 33%
c s  2.99  7 24 18 1886 51510 6757 100% 18 5683 885 33%
c ^  3.00  7 24 18 1886 51510 6757 100% 18 5683 885 33%
c O  3.20  7 23 18 1887 55021 8991 99% 18 5683 885 33%
c -  3.31  7 23 19 1889 57014 6458 98% 17 5683 885 33%
c ]  3.65  7 22 19 1893 63005 10665 97% 17 5683 885 33%
c 
c  seconds  reductions      redundant  irredundant
c         MB     restarts          trail     variables
c          level      conflicts        glue      remaining
c 
c {  3.65  7 21 19 1893 63005 10665 83% 10 5683 885 33%
c -  3.65  7 21 20 1894 63015 6794 83% 10 5683 885 33%
c B  3.79  7 21 20 2112 66024 9536 83% 10 5683 885 33%
c -  3.96  8 21 21 2416 69315 8407 83% 10 5683 885 33%
c p  4.26  8 20 21 2782 75004 13602 83% 10 5683 885 33%
c -  4.31  7 20 22 2817 75915 9643 83% 10 5683 885 33%
c W  4.43  7 20 22 2891 78025 11563 83% 10 5683 885 33%
c s  4.46  8 20 22 2906 78341 11836 83% 10 5683 885 33%
c w  4.48  8 20 22 2906 78341 11831 83% 10 5683 885 33%
c s  4.51  8 20 22 2906 78341 11826 83% 10 5683 885 33%
c ^  4.51  8 20 22 2906 78341 11826 83% 10 5683 885 33%
c -  4.74  8 20 23 3126 82815 10700 83% 10 5683 885 33%
c -  5.09  8 20 24 3384 90015 10755 83% 10 5683 885 33%
c #  5.13  8 20 24 3397 91027 11688 84% 10 5683 885 33%
c -  5.47  8 20 25 3689 97517 11727 84% 10 5683 885 33%
c p  5.85  8 19 25 3985 105004 18454 83% 10 5683 885 33%
c B  5.85  8 19 25 3989 105028 18477 83% 10 5683 885 33%
c -  5.88  8 19 26 4010 105319 12324 83% 10 5683 885 33%
c s  6.19  8 19 26 4318 110537 16882 83% 10 5683 885 33%
c w  6.21  8 19 26 4318 110537 16880 83% 10 5683 885 33%
c 
c  seconds  reductions      redundant  irredundant
c         MB     restarts          trail     variables
c          level      conflicts        glue      remaining
c 
c e  6.22  8 19 26 4318 110537 3833 83% 10 8119 567 21%
c s  6.24  8 19 26 4318 110537 3831 83% 10 8119 567 21%
c ^  6.24  8 19 26 4318 110537 3831 83% 10 8119 567 21%
c -  6.37  8 19 27 4506 113419 5153 85% 10 8119 567 21%
c W  6.73  8 19 27 4924 120029 11178 85% 10 8119 567 21%
c -  6.84  9 19 28 5167 121819 10213 85% 10 8119 567 21%
c }  7.09  9 19 28 5354 127006 14860 84% 10 8119 567 21%
c [  7.09  9 22 28 5354 127006 14860 151% 17 8119 567 21%
c -  7.28  9 22 29 5354 130520 12184 145% 16 8119 567 21%
c B  7.56  9 23 29 5359 136030 16714 137% 17 8119 567 21%
c -  7.77 10 23 30 5361 139521 12484 133% 17 8119 567 21%
c p  7.80 10 23 30 5361 140007 12893 133% 17 8119 567 21%
c -  8.23  9 23 31 5362 148821 12000 124% 17 8119 567 21%
c W  8.52  9 22 31 5363 153031 15525 121% 17 8119 567 21%
c -  8.85 10 24 32 5363 158421 12819 118% 17 8119 567 21%
c s  9.23 10 26 32 5363 164299 18319 115% 18 8119 567 21%
c w  9.25 10 26 32 5363 164299 18318 115% 18 8119 567 21%
c s  9.28 10 26 32 5363 164299 18316 115% 18 8119 567 21%
c -  9.53 11 26 33 5364 168321 13215 113% 18 8119 567 21%
c I  9.69 11 26 33 5366 171032 15262 112% 18 8119 567 21%
c 
c  seconds  reductions       redundant   irredundant
c         MB     restarts           trail      variables
c          level      conflicts          glue      remaining
c 
c - 10.20 11 27 34 5370 178522 13962 109% 18 8119 567 21%
c p 10.31 11 27 34 5370 180007 15361 109% 18 8119 567 21%
c - 10.88 10 26 35 5377 189022 14307 106% 18 8119 567 21%
c B 10.95 10 26 35 5377 190033 15114 106% 18 8119 567 21%
c - 11.60 12 25 36 5378 199822 14317 103% 17 8119 567 21%
c W 12.34 12 25 36 5385 210035 22425 101% 17 8119 567 21%
c - 12.41 12 25 37 5385 210924 14953 101% 17 8119 567 21%
c - 13.19 12 24 38 5392 222324 14993 99% 17 8119 567 21%
c p 13.37 12 25 38 5392 225008 17312 99% 18 8119 567 21%
c O 13.81 12 25 38 5393 231036 21843 98% 18 8119 567 21%
c - 13.99 14 24 39 5393 234025 15539 97% 18 8119 567 21%
c - 14.69 14 24 40 5394 246026 15787 96% 18 8119 567 21%
c B 15.15 14 24 40 5395 253039 21866 95% 18 8119 567 21%
c ] 15.27 14 25 40 5395 255007 23661 95% 18 8119 567 21%
c { 15.27 14 19 40 5395 255007 23661 84% 10 8119 567 21%
c - 15.50 14 19 41 5609 258328 17481 84% 10 8119 567 21%
c - 16.26 15 19 42 6304 270930 18642 83% 10 8119 567 21%
c p 16.52 15 19 42 6441 275008 22162 82% 10 8119 567 21%
c F 16.58 15 19 42 6513 276040 23090 82% 10 8119 567 21%
c - 17.07 11 19 43 6961 283831 20149 82% 10 8119 567 21%
c 
c  seconds  reductions       redundant  irredundant
c         MB     restarts           trail     variables
c          level      conflicts         glue      remaining
c 
c - 17.94 13 19 44 7877 297031 21548 82% 10 8119 567 21%
c B 18.12 13 19 44 8091 300042 24097 82% 10 8119 567 21%
c - 18.86 15 19 45 8935 310533 22275 83% 10 8119 567 21%
c - 19.76 15 19 46 9735 324337 22320 82% 10 8119 567 21%
c W 19.91 15 19 46 9830 325046 22980 82% 10 8119 567 21%
c p 20.23 15 19 46 10097 330008 27375 82% 10 8119 567 21%
c - 20.92 17 19 47 11065 338437 24020 82% 10 8119 567 21%
c # 21.85 17 19 47 12078 351049 35560 82% 10 8119 567 21%
c - 22.00 14 19 48 12169 352837 24746 82% 10 8119 567 21%
c - 23.08 14 19 49 13384 367537 25409 82% 10 8119 567 21%
c B 23.77 14 19 49 13967 378050 34889 83% 10 8119 567 21%
c - 24.13 13 19 50 14298 382538 25908 83% 10 8119 567 21%
c p 24.69 13 19 50 14968 390008 32730 83% 10 8119 567 21%
c - 25.33 16 19 51 15608 397839 27040 83% 10 8119 567 21%
c W 26.05 16 19 51 16214 406053 34433 83% 10 8119 567 21%
c - 26.53 13 19 52 16375 413439 26754 83% 10 8119 567 21%
c - 27.60 15 18 53 17157 429339 26927 82% 10 8119 567 21%
c F 27.98 15 18 53 17485 435054 32237 82% 10 8119 567 21%
c - 28.66 18 18 54 17840 445539 28709 82% 10 8119 567 21%
c p 29.28 18 18 54 18339 455009 37012 81% 10 8119 567 21%
c 
c  seconds  reductions        redundant  irredundant
c         MB      restarts           trail     variables
c          level       conflicts         glue      remaining
c 
c - 29.91 15 18 55 19076 462039 29542 81% 10 8119 567 21%
c B 30.15 15 18 55 19362 465056 32218 81% 10 8119 567 21%
c - 31.21 18 18 56 20349 478839 30329 81% 10 8119 567 21%
c s 31.27 18 18 56 20349 478839 30233 81% 10 8119 567 21%
c w 31.35 18 18 56 20349 478839 30210 81% 10 8119 567 21%
c - 32.72 15 18 57 21739 495940 31616 82% 10 8119 567 21%
c W 32.85 15 18 57 21739 496057 31721 82% 10 8119 567 21%
c } 33.97 15 18 57 22806 511007 45032 81% 10 8119 567 21%
c [ 33.97 15 25 57 22806 511007 45032 95% 18 8119 567 21%
c - 34.13 16 24 58 22806 513340 31601 94% 18 8119 567 21%
c p 34.93 16 24 58 22806 525009 41394 94% 17 8119 564 21%
c s 35.01 16 24 58 22806 525009 41363 94% 17 8104 564 21%
c W 35.42 15 24 58 22806 528059 44192 93% 17 8104 564 21%
c - 35.66 14 24 59 22806 531041 31642 93% 17 8104 564 21%
c - 37.11 14 23 60 22813 549041 28991 92% 17 8104 564 21%
c I 38.18 14 23 60 22820 561060 38865 91% 17 8104 564 21%
c - 38.73 17 24 61 22821 567342 29375 91% 17 8104 564 21%
c - 40.44 21 25 62 22829 585943 30737 91% 18 8104 564 21%
c s 41.28 21 26 62 22835 594218 38271 91% 18 8077 564 21%
c w 41.36 21 26 62 22835 594218 38270 91% 18 8077 564 21%
c 
c  seconds  reductions        redundant  irredundant
c         MB      restarts           trail     variables
c          level       conflicts         glue      remaining
c 
c s 41.39 21 26 62 22835 594218 38270 91% 18 8077 564 21%
c B 41.49 21 26 62 22835 595062 39047 90% 18 8077 564 21%
c p 41.90 21 27 62 22836 600010 43787 90% 19 8077 564 21%
c - 42.29 17 27 63 22836 604844 31092 90% 18 8077 564 21%
c - 43.92 18 26 64 22838 624045 31141 90% 18 8077 564 21%
c W 44.60 18 26 64 22843 630063 36468 90% 18 8077 564 21%
c - 45.92 18 26 65 22850 643545 32011 89% 18 8077 564 21%
c - 47.87 19 25 66 22858 663345 32960 89% 18 8077 564 21%
c O 48.11 19 25 66 22859 666064 35395 89% 18 8077 564 21%
c p 49.11 19 24 66 22866 680010 46062 89% 17 8077 564 21%
c - 49.40 19 24 67 22867 683445 30847 89% 17 8077 564 21%
c B 50.94 19 23 67 22868 703066 46863 88% 17 8077 564 21%
c - 51.04 19 23 68 22868 703845 31318 88% 17 8077 564 21%
c - 52.94 19 22 69 22869 724546 30667 88% 17 8077 564 21%
c W 54.53 19 22 69 22870 741069 42814 88% 16 8077 564 21%
c - 54.95 19 21 70 22870 745546 30915 88% 16 8077 564 21%
c p 56.63 19 21 70 22870 765010 46988 87% 16 8077 564 21%
c - 56.86 19 21 71 22870 766847 33085 87% 16 8077 564 21%
c I 57.88 19 21 71 22870 780070 43725 87% 16 8077 564 21%
c - 58.61 19 23 72 22870 788447 34325 87% 17 8077 564 21%
c 
c  seconds  reductions        redundant  irredundant
c         MB      restarts           trail     variables
c          level       conflicts         glue      remaining
c 
c - 60.73 24 28 73 22874 810350 36434 87% 18 8077 564 21%
c B 61.78 24 30 73 22879 820073 45521 87% 19 8077 564 21%
c - 63.01 24 30 74 22885 832550 36068 87% 19 8077 564 21%
c p 65.59 24 30 74 22895 855010 54196 87% 20 8077 564 21%
c - 65.65 20 30 75 22895 855051 35037 87% 20 8077 564 21%
c W 66.43 20 30 75 22899 861074 39878 87% 20 8077 564 21%
c - 68.11 20 30 76 22901 877852 35278 87% 20 8077 564 21%
c - 70.58 20 29 77 22908 900952 36094 87% 21 8077 564 21%
c O 70.80 20 29 77 22910 903075 37794 87% 21 8077 564 21%
c - 72.61 20 28 78 22919 924352 32805 87% 20 8077 564 21%
c B 74.50 20 26 78 22930 946076 48213 87% 19 8077 564 21%
c - 74.70 20 26 79 22931 948053 33312 87% 19 8077 564 21%
c p 74.86 20 26 79 22931 950010 34968 87% 19 8077 564 21%
c - 76.83 20 26 80 22933 972054 34557 87% 19 8077 564 21%
c W 78.74 20 26 80 22933 990079 49565 87% 19 8077 564 21%
c - 79.44 20 26 81 22933 996354 35749 87% 19 8077 564 21%
c s 79.51 20 26 81 22933 996354 35692 87% 19 8077 564 21%
c w 79.60 20 26 81 22933 996354 35673 87% 19 8077 564 21%
c - 81.86 20 25 82 22943 1020955 35070 87% 19 8077 564 21%
c ] 82.02 20 25 82 22945 1023007 36602 87% 18 8077 564 21%
c 
c  seconds  reductions         redundant  irredundant
c         MB      restarts            trail     variables
c          level        conflicts         glue      remaining
c 
c { 82.02 20 18 82 22945 1023007 36602 81% 10 8077 564 21%
c # 83.03 20 18 82 23927 1035082 47462 81% 10 8077 564 21%
c - 83.96 20 18 83 24553 1045855 38847 82% 10 8077 564 21%
c p 84.33 20 18 83 24822 1050010 42688 82% 10 8077 564 21%
c - 86.25 20 18 84 26037 1071055 42685 82% 10 8077 564 21%
c B 87.16 20 18 84 26770 1081083 51785 82% 10 8077 564 21%
c - 88.64 23 18 85 27645 1096555 44841 82% 10 8077 564 21%
c - 91.24 23 18 86 29559 1122355 46394 82% 10 8077 564 21%
c W 91.99 23 18 86 29997 1128084 51507 82% 10 8077 564 21%
c - 94.02 23 18 87 31174 1148455 47026 82% 10 8077 564 21%
c p 94.64 23 18 87 31615 1155010 52906 81% 10 8077 564 21%
c - 96.54 23 18 88 32576 1174858 47675 80% 10 8077 564 21%
c F 96.67 23 18 88 32724 1176092 48783 80% 10 8077 564 21%
c - 99.42 23 18 89 34777 1201558 49880 81% 10 8077 564 21%
c B 101.87 23 18 89 36509 1225095 70545 81% 10 8077 564 21%
c - 102.35 26 18 90 36792 1228561 50184 81% 10 8077 564 21%
c - 105.23 29 18 91 38746 1255864 51181 81% 10 8077 564 21%
c p 106.22 29 18 91 39547 1265012 59477 81% 10 8077 564 21%
c W 107.72 29 18 91 40285 1275101 68562 82% 10 8077 564 21%
c - 108.68 29 18 92 40771 1283464 52613 82% 10 8077 564 21%
c 
c  seconds   reductions         redundant  irredundant
c          MB      restarts            trail     variables
c           level        conflicts         glue      remaining
c 
c - 111.64 29 18 93 42557 1311364 52885 82% 10 8077 564 21%
c # 113.21 29 18 93 43729 1326108 66271 82% 10 8077 564 21%
c - 114.80 30 18 94 44654 1339565 54982 82% 10 8077 564 21%
c - 118.10 30 18 95 46634 1368066 55891 83% 10 8077 564 21%
c B 119.21 30 18 95 47408 1378110 64780 83% 10 8077 564 21%
c p 119.50 30 18 95 47608 1380012 66538 83% 10 8077 564 21%
c - 121.66 30 18 96 48892 1396868 56620 83% 10 8077 564 21%
c - 124.54 30 17 97 50233 1425968 56288 81% 10 8077 564 21%
c s 124.72 30 17 97 50233 1425968 56070 81% 10 8077 564 21%
c w 124.88 30 17 97 50233 1425968 56039 81% 10 8077 564 21%
c W 125.79 30 17 97 50792 1431111 60702 81% 10 8077 564 21%
c - 128.45 30 17 98 52339 1455370 58728 81% 10 8077 564 21%
c - 131.89 31 17 99 54486 1485070 58983 82% 10 8077 564 21%
c F 131.90 31 17 99 54491 1485112 59020 82% 10 8077 564 21%
c p 133.69 31 18 99 55740 1500012 72493 82% 10 8077 564 21%
c - 135.41 31 18 100 56400 1515071 59721 82% 10 8077 564 21%
c B 138.05 31 17 100 57525 1540113 81647 82% 10 8077 564 21%
c - 138.71 31 17 101 57786 1545375 60642 82% 10 8077 564 21%
c - 142.74 31 17 102 60248 1575975 61777 82% 10 8077 564 21%
c W 145.33 31 17 102 61343 1596114 79587 82% 10 8077 564 21%
c 
c  seconds    reductions         redundant  irredundant
c          MB       restarts            trail     variables
c           level         conflicts         glue      remaining
c 
c - 146.77 31 17 103 62065 1606875 62083 82% 10 8077 564 21%
c p 148.93 31 17 103 63437 1625012 77757 82% 10 8077 562 21%
c s 149.18 31 17 103 63437 1625012 77642 82% 10 8067 562 21%
c - 150.91 31 17 104 64227 1638075 62658 82% 10 8067 562 21%
c # 152.47 31 17 104 65050 1653115 75052 82% 10 8067 562 21%
c - 154.66 31 17 105 66263 1669578 62370 82% 10 8067 562 21%
c - 158.93 31 17 106 68923 1701379 64546 82% 10 8067 562 21%
c s 160.10 31 17 106 69469 1709567 71525 82% 10 8051 562 21%
c w 160.28 31 17 106 69469 1709567 71521 82% 10 8051 562 21%
c s 160.55 31 17 106 69469 1709567 71518 82% 10 8051 562 21%
c B 160.71 31 17 106 69526 1711118 72769 82% 10 8051 562 21%
c - 163.59 32 17 107 70909 1733480 65546 82% 10 8051 562 21%
c p 166.24 32 17 107 72510 1755012 84636 83% 10 8051 562 21%
c - 167.57 32 17 108 72946 1765881 66155 83% 10 8051 562 21%
c W 168.57 32 17 108 73437 1770119 69974 83% 10 8051 562 21%
c - 171.93 32 17 109 74914 1798582 66331 83% 10 8051 562 21%
c F 175.84 32 17 109 77024 1830120 93744 83% 10 8051 562 21%
c - 176.12 32 17 110 77145 1831583 67117 83% 10 8051 562 21%
c - 179.89 32 17 111 78464 1864884 67436 82% 10 8051 562 21%
c p 182.90 32 16 111 79852 1890013 88642 81% 10 8051 562 21%
c 
c  seconds    reductions         redundant  irredundant
c          MB       restarts            trail     variables
c           level         conflicts         glue      remaining
c 
c B 183.07 32 16 111 79892 1891123 89607 81% 10 8051 562 21%
c - 184.22 32 16 112 80375 1898485 68614 82% 10 8051 562 21%
c - 189.10 23 17 113 82845 1932385 71087 82% 10 8051 562 21%
c W 192.63 24 17 113 84683 1953124 89187 82% 10 8051 562 21%
c - 194.65 24 17 114 85537 1966585 71691 82% 10 8051 562 21%
c - 199.46 24 17 115 87854 2001085 72115 82% 10 8051 562 21%
c # 201.29 24 17 115 88749 2016125 85260 82% 10 8051 562 21%
c p 203.68 24 17 115 90118 2030014 97534 82% 10 8051 562 21%
c - 204.67 29 17 116 90507 2035885 73691 82% 10 8051 562 21%
c } 206.04 29 17 116 91171 2047008 83557 82% 10 8051 562 21%
c [ 206.04 29 25 116 91171 2047008 83557 87% 18 8051 562 21%
c - 208.29 29 23 117 91181 2070986 70110 86% 18 8051 562 21%
c I 209.23 29 22 117 91186 2080128 76101 86% 17 8051 562 21%
c - 212.33 26 24 118 91190 2106387 68887 86% 17 8051 562 21%
c - 217.19 26 25 119 91205 2142089 68465 86% 18 8051 562 21%
c B 217.60 26 25 119 91205 2145132 71054 86% 18 8051 562 21%
c p 222.06 26 26 119 91220 2175015 95752 87% 19 8051 561 21%
c s 222.29 26 26 119 91220 2175015 95688 87% 19 8051 561 21%
c v 222.35 26 26 119 91220 2175015 95688 87% 19 8040 561 21%
c w 222.69 26 26 119 91220 2175015 95682 87% 19 8040 561 21%
c 
c  seconds    reductions         redundant  irredundant
c          MB       restarts            trail     variables
c           level         conflicts         glue      remaining
c 
c s 222.93 26 26 119 91220 2175015 95672 87% 19 8035 561 21%
c - 223.69 26 26 120 91220 2178090 66785 87% 19 8035 561 21%
c ] 228.19 26 25 120 91222 2211133 89734 87% 19 8035 561 21%
c 1 228.19 26 25 120 91222 2211133 89734 87% 19 8035 561 21%
c 
c --- [ result ] -------------------------------------------------------------
c 
s SATISFIABLE
v -1 -2 -3 -4 -5 -6 -7 8 -9 10 -11 -12 -13 -14 -15 -16 -17 -18 -19 -20 -21 -22
v -23 24 -25 26 -27 28 -29 -30 31 -32 -33 -34 -35 -36 37 38 -39 -40 -41 -42
v -43 -44 -45 -46 47 -48 -49 -50 -51 -52 -53 54 55 56 -57 -58 59 -60 -61 62 63
v -64 -65 -66 -67 -68 -69 -70 -71 -72 -73 -74 -75 76 -77 -78 -79 -80 -81 82
v -83 -84 85 86 -87 -88 -89 -90 -91 -92 -93 -94 -95 -96 -97 -98 -99 -100 -101
v -102 -103 -104 -105 -106 -107 -108 109 -110 -111 -112 -113 -114 -115 -116
v -117 -118 119 -120 121 -122 -123 -124 -125 126 -127 -128 129 -130 -131 -132
v -133 -134 -135 -136 -137 -138 -139 140 -141 -142 -143 144 -145 -146 -147 148
v -149 -150 -151 -152 -153 -154 -155 156 -157 -158 -159 -160 -161 -162 -163
v -164 -165 -166 -167 -168 -169 -170 -171 -172 173 174 -175 -176 -177 -178
v -179 180 -181 182 -183 -184 -185 -186 -187 -188 -189 -190 -191 -192 193 -194
v 195 -196 -197 -198 -199 -200 -201 -202 -203 -204 -205 -206 -207 -208 -209
v -210 211 -212 -213 214 -215 216 -217 -218 -219 -220 -221 -222 223 -224 -225
v -226 -227 -228 -229 -230 231 232 -233 234 -235 -236 -237 -238 -239 240 -241
v -242 -243 -244 -245 246 -247 -248 -249 -250 251 252 253 254 -255 256 -257
v -258 -259 260 -261 -262 -263 -264 265 -266 267 -268 269 -270 -271 -272 -273
v 274 275 276 277 -278 -279 280 281 282 283 -284 -285 286 287 288 -289 -290
v -291 -292 293 -294 295 -296 297 -298 299 -300 -301 -302 -303 -304 305 -306
v -307 -308 -309 -310 311 -312 -313 314 -315 -316 317 -318 319 -320 -321 322
v -323 324 325 326 327 328 329 330 331 332 333 334 335 336 337 338 339 340 341
v 342 343 344 345 346 347 348 349 350 351 352 353 354 355 356 357 358 359 360
v 361 362 363 364 365 366 367 368 369 370 371 372 373 374 375 376 377 378 379
v 380 381 382 383 384 385 386 387 388 389 390 391 392 393 394 395 396 397 398
v -399 400 401 402 403 404 405 406 407 408 409 410 411 412 413 414 415 416 417
v 418 419 420 421 422 423 424 425 426 427 428 429 430 431 432 433 434 435 436
v 437 438 439 440 441 442 443 444 445 446 447 448 449 450 451 452 453 454 455
v 456 457 458 459 460 461 462 463 464 465 466 467 468 469 470 471 472 -473
v -474 475 476 477 478 479 480 481 482 483 484 485 486 487 488 489 490 491 492
v 493 494 495 496 497 498 499 500 501 502 503 504 505 506 507 508 509 510 511
v 512 513 514 515 516 517 518 519 520 521 522 523 524 525 526 527 528 529 530
v 531 532 533 534 535 536 537 538 539 540 541 542 543 544 545 546 -547 -548
v -549 550 551 552 553 554 555 556 557 558 559 560 561 562 563 564 565 566 567
v 568 569 570 571 572 573 574 575 576 577 578 579 580 581 582 583 584 585 586
v 587 588 589 590 591 592 593 594 595 596 597 598 599 600 601 602 603 604 605
v 606 607 608 609 610 611 612 613 614 615 616 617 618 619 620 -621 -622 -623
v -624 -625 626 627 628 629 630 631 632 633 634 635 636 637 638 639 640 641
v 642 643 644 645 646 647 648 649 650 651 652 653 654 655 656 657 658 659 660
v 661 662 663 664 665 666 667 668 669 670 671 672 673 674 675 676 677 678 679
v 680 681 682 683 684 685 686 687 688 689 690 691 692 693 694 -695 -696 -697
v -698 -699 -700 -701 -702 -703 704 705 706 707 708 709 710 711 712 713 714
v 715 716 717 718 719 720 721 722 723 724 725 726 727 728 729 730 731 732 733
v 734 735 736 737 738 739 740 741 742 743 744 745 746 747 748 749 750 751 752
v 753 754 755 756 757 758 759 760 761 762 763 764 765 766 767 768 -769 -770
v -771 -772 -773 -774 -775 -776 -777 -778 -779 -780 -781 -782 783 784 785 786
v 787 788 789 790 791 792 793 794 795 796 797 798 799 800 801 802 803 804 805
v 806 807 808 809 810 811 812 813 814 815 816 817 818 819 820 821 822 823 824
v 825 826 827 828 829 830 831 832 833 834 835 836 837 838 839 840 841 842 -843
v -844 -845 -846 -847 -848 -849 -850 -851 -852 -853 -854 -855 -856 -857 -858
v 859 860 861 862 863 864 865 866 867 868 869 870 871 872 873 874 875 876 877
v 878 879 880 881 882 883 884 885 886 887 888 889 890 891 892 893 894 895 896
v 897 898 899 900 901 902 903 904 905 906 907 908 909 910 911 912 913 914 915
v 916 -917 -918 -919 -920 -921 -922 -923 -924 -925 -926 -927 -928 -929 -930
v -931 -932 -933 -934 935 936 937 938 939 940 941 942 943 944 945 946 947 948
v 949 950 951 952 953 954 955 956 957 958 959 960 961 962 963 964 965 966 967
v 968 969 970 971 972 973 974 975 976 977 978 979 980 981 982 983 984 985 986
v 987 988 989 990 -991 -992 -993 -994 -995 -996 -997 -998 -999 -1000 -1001
v -1002 -1003 -1004 -1005 -1006 -1007 -1008 -1009 -1010 -1011 -1012 -1013 1014
v 1015 1016 1017 1018 1019 1020 1021 1022 1023 1024 1025 1026 1027 1028 1029
v 1030 1031 1032 1033 1034 1035 1036 1037 1038 1039 1040 1041 1042 1043 1044
v 1045 1046 1047 1048 1049 1050 1051 1052 1053 1054 1055 1056 1057 1058 1059
v 1060 1061 1062 1063 1064 -1065 -1066 -1067 -1068 -1069 -1070 -1071 -1072
v -1073 -1074 -1075 -1076 -1077 -1078 -1079 -1080 -1081 -1082 -1083 -1084
v -1085 -1086 -1087 -1088 1089 1090 1091 1092 1093 1094 1095 1096 1097 1098
v 1099 1100 1101 1102 1103 1104 1105 1106 1107 1108 1109 1110 1111 1112 1113
v 1114 1115 1116 1117 1118 1119 1120 1121 1122 1123 1124 1125 1126 1127 1128
v 1129 1130 1131 1132 1133 1134 1135 1136 1137 1138 -1139 -1140 -1141 -1142
v -1143 -1144 -1145 -1146 -1147 -1148 -1149 -1150 -1151 -1152 -1153 -1154
v -1155 -1156 -1157 -1158 -1159 -1160 -1161 -1162 -1163 1164 1165 1166 1167
v 1168 1169 1170 1171 1172 1173 1174 1175 1176 1177 1178 1179 1180 1181 1182
v 1183 1184 1185 1186 1187 1188 1189 1190 1191 1192 1193 1194 1195 1196 1197
v 1198 1199 1200 1201 1202 1203 1204 1205 1206 1207 1208 1209 1210 1211 1212
v -1213 -1214 -1215 -1216 -1217 -1218 -1219 -1220 -1221 -1222 -1223 -1224
v -1225 -1226 -1227 -1228 -1229 -1230 -1231 -1232 -1233 -1234 -1235 -1236
v -1237 -1238 1239 1240 1241 1242 1243 1244 1245 1246 1247 1248 1249 1250 1251
v 1252 1253 1254 1255 1256 1257 1258 1259 1260 1261 1262 1263 1264 1265 1266
v 1267 1268 1269 1270 1271 1272 1273 1274 1275 1276 1277 1278 1279 1280 1281
v 1282 1283 1284 1285 1286 -1287 -1288 -1289 -1290 -1291 -1292 -1293 -1294
v -1295 -1296 -1297 -1298 -1299 -1300 -1301 -1302 -1303 -1304 -1305 -1306
v -1307 -1308 -1309 -1310 -1311 -1312 -1313 -1314 -1315 1316 1317 1318 1319
v 1320 1321 1322 1323 1324 1325 1326 1327 1328 1329 1330 1331 1332 1333 1334
v 1335 1336 1337 1338 1339 1340 1341 1342 1343 1344 1345 1346 1347 1348 1349
v 1350 1351 1352 1353 1354 1355 1356 1357 1358 1359 1360 -1361 -1362 -1363
v -1364 -1365 -1366 -1367 -1368 -1369 -1370 -1371 -1372 -1373 -1374 -1375
v -1376 -1377 -1378 -1379 -1380 -1381 -1382 -1383 -1384 -1385 -1386 -1387
v -1388 -1389 -1390 1391 1392 1393 1394 1395 1396 1397 1398 1399 1400 1401
v 1402 1403 1404 1405 1406 1407 1408 1409 1410 1411 1412 1413 1414 1415 1416
v 1417 1418 1419 1420 1421 1422 1423 1424 1425 1426 1427 1428 1429 1430 1431
v 1432 1433 1434 -1435 -1436 -1437 -1438 -1439 -1440 -1441 -1442 -1443 -1444
v -1445 -1446 -1447 -1448 -1449 -1450 -1451 -1452 -1453 -1454 -1455 -1456
v -1457 -1458 -1459 -1460 -1461 -1462 -1463 -1464 -1465 1466 1467 1468 1469
v 1470 1471 1472 1473 1474 1475 1476 1477 1478 1479 1480 1481 1482 1483 1484
v 1485 1486 1487 1488 1489 1490 1491 1492 1493 1494 1495 1496 1497 1498 1499
v 1500 1501 1502 1503 1504 1505 1506 1507 1508 -1509 -1510 -1511 -1512 -1513
v -1514 -1515 -1516 -1517 -1518 -1519 -1520 -1521 -1522 -1523 -1524 -1525
v -1526 -1527 -1528 -1529 -1530 -1531 -1532 -1533 -1534 -1535 -1536 -1537
v -1538 -1539 -1540 1541 1542 1543 1544 1545 1546 1547 1548 1549 1550 1551
v 1552 1553 1554 1555 1556 1557 1558 1559 1560 1561 1562 1563 1564 1565 1566
v 1567 1568 1569 1570 1571 1572 1573 1574 1575 1576 1577 1578 1579 1580 1581
v 1582 -1583 -1584 -1585 -1586 -1587 -1588 -1589 -1590 -1591 -1592 -1593 -1594
v -1595 -1596 -1597 -1598 -1599 -1600 -1601 -1602 -1603 -1604 -1605 -1606
v -1607 -1608 -1609 -1610 -1611 -1612 -1613 -1614 -1615 -1616 -1617 1618 1619
v 1620 1621 1622 1623 1624 1625 1626 1627 1628 1629 1630 1631 1632 1633 1634
v 1635 1636 1637 1638 1639 1640 1641 1642 1643 1644 1645 1646 1647 1648 1649
v 1650 1651 1652 1653 1654 1655 1656 -1657 -1658 -1659 -1660 -1661 -1662 -1663
v -1664 -1665 -1666 -1667 -1668 -1669 -1670 -1671 -1672 -1673 -1674 -1675
v -1676 -1677 -1678 -1679 -1680 -1681 -1682 -1683 -1684 -1685 -1686 -1687
v -1688 -1689 -1690 -1691 -1692 1693 1694 1695 1696 1697 1698 1699 1700 1701
v 1702 1703 1704 1705 1706 1707 1708 1709 1710 1711 1712 1713 1714 1715 1716
v 1717 1718 1719 1720 1721 1722 1723 1724 1725 1726 1727 1728 1729 1730 -1731
v -1732 -1733 -1734 -1735 -1736 -1737 -1738 -1739 -1740 -1741 -1742 -1743
v -1744 -1745 -1746 -1747 -1748 -1749 -1750 -1751 -1752 -1753 -1754 -1755
v -1756 -1757 -1758 -1759 -1760 -1761 -1762 -1763 -1764 -1765 -1766 -1767 1768
v 1769 1770 1771 1772 1773 1774 1775 1776 1777 1778 1779 1780 1781 1782 1783
v 1784 1785 1786 1787 1788 1789 1790 1791 1792 1793 1794 1795 1796 1797 1798
v 1799 1800 1801 1802 1803 1804 -1805 -1806 -1807 -1808 -1809 -1810 -1811
v -1812 -1813 -1814 -1815 -1816 -1817 -1818 -1819 -1820 -1821 -1822 -1823
v -1824 -1825 -1826 -1827 -1828 -1829 -1830 -1831 -1832 -1833 -1834 -1835
v -1836 -1837 -1838 -1839 -1840 -1841 -1842 -1843 -1844 -1845 -1846 1847 1848
v 1849 1850 1851 1852 1853 1854 1855 1856 1857 1858 1859 1860 1861 1862 1863
v 1864 1865 1866 1867 1868 1869 1870 1871 1872 1873 1874 1875 1876 1877 1878
v -1879 -1880 -1881 -1882 -1883 -1884 -1885 -1886 -1887 -1888 -1889 -1890
v -1891 -1892 -1893 -1894 -1895 -1896 -1897 -1898 -1899 -1900 -1901 -1902
v -1903 -1904 -1905 -1906 -1907 -1908 -1909 -1910 -1911 -1912 -1913 -1914
v -1915 -1916 -1917 -1918 -1919 -1920 -1921 -1922 1923 1924 1925 1926 1927
v 1928 1929 1930 1931 1932 1933 1934 1935 1936 1937 1938 1939 1940 1941 1942
v 1943 1944 1945 1946 1947 1948 1949 1950 1951 1952 -1953 -1954 -1955 -1956
v -1957 -1958 -1959 -1960 -1961 -1962 -1963 -1964 -1965 -1966 -1967 -1968
v -1969 -1970 -1971 -1972 -1973 -1974 -1975 -1976 -1977 -1978 -1979 -1980
v -1981 -1982 -1983 -1984 -1985 -1986 -1987 -1988 -1989 -1990 -1991 -1992
v -1993 -1994 -1995 -1996 -1997 -1998 1999 2000 2001 2002 2003 2004 2005 2006
v 2007 2008 2009 2010 2011 2012 2013 2014 2015 2016 2017 2018 2019 2020 2021
v 2022 2023 2024 2025 2026 -2027 -2028 -2029 -2030 -2031 -2032 -2033 -2034
v -2035 -2036 -2037 -2038 -2039 -2040 -2041 -2042 -2043 -2044 -2045 -2046
v -2047 -2048 -2049 -2050 -2051 -2052 -2053 -2054 -2055 -2056 -2057 -2058
v -2059 -2060 -2061 -2062 -2063 -2064 -2065 -2066 -2067 -2068 -2069 -2070
v -2071 -2072 -2073 -2074 2075 2076 2077 2078 2079 2080 2081 2082 2083 2084
v 2085 2086 2087 2088 2089 2090 2091 2092 2093 2094 2095 2096 2097 2098 2099
v 2100 -2101 -2102 -2103 -2104 -2105 -2106 -2107 -2108 -2109 -2110 -2111 -2112
v -2113 -2114 -2115 -2116 -2117 -2118 -2119 -2120 -2121 -2122 -2123 -2124
v -2125 -2126 -2127 -2128 -2129 -2130 -2131 -2132 -2133 -2134 -2135 -2136
v -2137 -2138 -2139 -2140 -2141 -2142 -2143 -2144 -2145 -2146 -2147 -2148
v -2149 -2150 -2151 -2152 -2153 -2154 2155 2156 2157 2158 2159 2160 2161 2162
v 2163 2164 2165 2166 2167 2168 2169 2170 2171 2172 2173 2174 -2175 -2176
v -2177 -2178 -2179 -2180 -2181 -2182 -2183 -2184 -2185 -2186 -2187 -2188
v -2189 -2190 -2191 -2192 -2193 -2194 -2195 -2196 -2197 -2198 -2199 -2200
v -2201 -2202 -2203 -2204 -2205 -2206 -2207 -2208 -2209 -2210 -2211 -2212
v -2213 -2214 -2215 -2216 -2217 -2218 -2219 -2220 -2221 -2222 -2223 -2224
v -2225 -2226 -2227 -2228 -2229 -2230 -2231 -2232 -2233 -2234 2235 2236 2237
v 2238 2239 2240 2241 2242 2243 2244 2245 2246 2247 2248 -2249 -2250 -2251
v -2252 -2253 -2254 -2255 -2256 -2257 -2258 -2259 -2260 -2261 -2262 -2263
v -2264 -2265 -2266 -2267 -2268 -2269 -2270 -2271 -2272 -2273 -2274 -2275
v -2276 -2277 -2278 -2279 -2280 -2281 -2282 -2283 -2284 -2285 -2286 -2287
v -2288 -2289 -2290 -2291 -2292 -2293 -2294 -2295 -2296 -2297 -2298 -2299
v -2300 -2301 -2302 -2303 -2304 -2305 -2306 -2307 -2308 -2309 -2310 -2311 2312
v 2313 2314 2315 2316 2317 2318 2319 2320 2321 2322 -2323 -2324 -2325 -2326
v -2327 -2328 -2329 -2330 -2331 -2332 -2333 -2334 -2335 -2336 -2337 -2338
v -2339 -2340 -2341 -2342 -2343 -2344 -2345 -2346 -2347 -2348 -2349 -2350
v -2351 -2352 -2353 -2354 -2355 -2356 -2357 -2358 -2359 -2360 -2361 -2362
v -2363 -2364 -2365 -2366 -2367 -2368 -2369 -2370 -2371 -2372 -2373 -2374
v -2375 -2376 -2377 -2378 -2379 -2380 -2381 -2382 -2383 -2384 -2385 -2386
v -2387 -2388 2389 2390 2391 2392 2393 2394 2395 2396 -2397 -2398 -2399 -2400
v -2401 -2402 -2403 -2404 -2405 -2406 -2407 -2408 -2409 -2410 -2411 -2412
v -2413 -2414 -2415 -2416 -2417 -2418 -2419 -2420 -2421 -2422 -2423 -2424
v -2425 -2426 -2427 -2428 -2429 -2430 -2431 -2432 -2433 -2434 -2435 -2436
v -2437 -2438 -2439 -2440 -2441 -2442 -2443 -2444 -2445 -2446 -2447 -2448
v -2449 -2450 -2451 -2452 -2453 -2454 -2455 -2456 -2457 -2458 -2459 -2460
v -2461 -2462 -2463 -2464 2465 2466 2467 2468 2469 2470 -2471 -2472 -2473
v -2474 -2475 -2476 -2477 -2478 -2479 -2480 -2481 -2482 -2483 -2484 -2485
v -2486 -2487 -2488 -2489 -2490 -2491 -2492 -2493 -2494 -2495 -2496 -2497
v -2498 -2499 -2500 -2501 -2502 -2503 -2504 -2505 -2506 -2507 -2508 -2509
v -2510 -2511 -2512 -2513 -2514 -2515 -2516 -2517 -2518 -2519 -2520 -2521
v -2522 -2523 -2524 -2525 -2526 -2527 -2528 -2529 -2530 -2531 -2532 -2533
v -2534 -2535 -2536 -2537 -2538 -2539 -2540 -2541 2542 2543 2544 -2545 -2546
v -2547 -2548 -2549 -2550 -2551 -2552 -2553 -2554 -2555 -2556 -2557 -2558
v -2559 -2560 -2561 -2562 -2563 -2564 -2565 -2566 -2567 -2568 -2569 -2570
v -2571 -2572 -2573 -2574 -2575 -2576 -2577 -2578 -2579 -2580 -2581 -2582
v -2583 -2584 -2585 -2586 -2587 -2588 -2589 -2590 -2591 -2592 -2593 -2594
v -2595 -2596 -2597 -2598 -2599 -2600 -2601 -2602 -2603 -2604 -2605 -2606
v -2607 -2608 -2609 -2610 -2611 -2612 -2613 -2614 -2615 -2616 -2617 2618 -2619
v -2620 -2621 -2622 -2623 -2624 -2625 -2626 -2627 -2628 -2629 -2630 -2631
v -2632 -2633 -2634 -2635 -2636 -2637 -2638 -2639 -2640 -2641 -2642 -2643
v -2644 -2645 -2646 -2647 -2648 -2649 -2650 -2651 -2652 -2653 -2654 -2655
v -2656 -2657 -2658 -2659 -2660 -2661 -2662 -2663 -2664 -2665 -2666 -2667
v -2668 -2669 -2670 -2671 -2672 -2673 -2674 -2675 -2676 -2677 -2678 -2679
v -2680 -2681 -2682 -2683 -2684 -2685 -2686 -2687 -2688 -2689 -2690 -2691
v -2692 0
c 
c --- [ run-time profiling ] -------------------------------------------------
c 
c process time taken by individual solving procedures
c (percentage relative to process time for solving)
c 
c       224.09   98.20% search
c       142.14   62.29% unstable
c        77.75   34.07% stable
c         4.20    1.84% walk
c         4.10    1.80% simplify
c         1.74    0.76% subsume
c         1.06    0.46% vivify
c         0.61    0.27% probe
c         0.20    0.09% ternary
c         0.10    0.05% elim
c         0.00    0.00% parse
c         0.00    0.00% lucky
c   =================================
c       228.19  100.00% solve
c 
c last line shows process time for solving
c (percentage relative to total process time)
c 
c --- [ statistics ] ---------------------------------------------------------
c 
c chronological:            438937        19.85 %  of conflicts
c conflicts:               2211133      9689.87    per second
c decisions:               4040111     17705.02    per second
c eliminated:                 2051        76.19 %  of all variables
c fixed:                        80         2.97 %  of all variables
c learned:                 2169155        98.10 %  per conflict
c learned_lits:           83234370       100.00 %  learned literals
c minimized:                     0         0.00 %  learned literals
c shrunken:               27292633        32.79 %  learned literals
c minishrunken:            8501330        10.21 %  learned literals
c propagations:          182360696         0.80 M  per second
c reduced:                 1794007        81.14 %  per conflict
c rephased:                     66     33502.02    interval
c restarts:                  91222        24.24    interval
c stabilizing:                   6        38.27 %  of conflicts
c subsumed:                 271015         6.20 %  of all clauses
c strengthened:              11221         0.26 %  of all clauses
c ternary:                      66         0.07 %  of resolved
c vivified:                    206         0.00 %  of all clauses
c walked:                       21    105292.05    interval
c weakened:                   8767         2.89    average size
c 
c seconds are measured in process time for solving
c 
c --- [ resources ] ----------------------------------------------------------
c 
c total process time since initialization:       228.20    seconds
c total real time since initialization:          228.25    seconds
c maximum resident set size of process:           36.99    MB
c 
c --- [ shutting down ] ------------------------------------------------------
c 
c exit 10
